min: 46 x1_1 + 49 x1_2 + 41 x1_3 + 81 x1_4 + 78 x1_5 + 84 x1_6 + 32 x2_1 + 48 x2_2 + 70 x2_3 + 100 x2_4 + 48 x2_5 + 22 x2_6 + 22 x3_1 + 59 x3_2 + 42 x3_3 + 34 x3_4 + 18 x3_5 + 50 x3_6 + 80 x4_1 + 88 x4_2 + 87 x4_3 + 69 x4_4 + 86 x4_5 + 18 x4_6 + 77 x5_1 + 93 x5_2 + 87 x5_3 + 62 x5_4 + 25 x5_5 + 94 x5_6 + 8 x6_1 + 24 x6_2 + 22 x6_3 + 97 x6_4 + 24 x6_5 + 78 x6_6;

st
x1_1 + x1_2 + x1_3 + x1_4 + x1_5 + x1_6 <= 3991;
x2_1 + x2_2 + x2_3 + x2_4 + x2_5 + x2_6 <= 3904;
x3_1 + x3_2 + x3_3 + x3_4 + x3_5 + x3_6 <= 387;
x4_1 + x4_2 + x4_3 + x4_4 + x4_5 + x4_6 <= 647;
x5_1 + x5_2 + x5_3 + x5_4 + x5_5 + x5_6 <= 4122;
x6_1 + x6_2 + x6_3 + x6_4 + x6_5 + x6_6 <= 2852;

x1_1 + x2_1 + x3_1 + x4_1 + x5_1 + x6_1 >= 3311;
x1_2 + x2_2 + x3_2 + x4_2 + x5_2 + x6_2 >= 2233;
x1_3 + x2_3 + x3_3 + x4_3 + x5_3 + x6_3 >= 3154;
x1_4 + x2_4 + x3_4 + x4_4 + x5_4 + x6_4 >= 1424;
x1_5 + x2_5 + x3_5 + x4_5 + x5_5 + x6_5 >= 2090;
x1_6 + x2_6 + x3_6 + x4_6 + x5_6 + x6_6 >= 431;

x1_1 >= 0;
x1_2 >= 0;
x1_3 >= 0;
x1_4 >= 0;
x1_5 >= 0;
x1_6 >= 0;
x2_1 >= 0;
x2_2 >= 0;
x2_3 >= 0;
x2_4 >= 0;
x2_5 >= 0;
x2_6 >= 0;
x3_1 >= 0;
x3_2 >= 0;
x3_3 >= 0;
x3_4 >= 0;
x3_5 >= 0;
x3_6 >= 0;
x4_1 >= 0;
x4_2 >= 0;
x4_3 >= 0;
x4_4 >= 0;
x4_5 >= 0;
x4_6 >= 0;
x5_1 >= 0;
x5_2 >= 0;
x5_3 >= 0;
x5_4 >= 0;
x5_5 >= 0;
x5_6 >= 0;
x6_1 >= 0;
x6_2 >= 0;
x6_3 >= 0;
x6_4 >= 0;
x6_5 >= 0;
x6_6 >= 0;